
Gurobi 11.0.1 (win64) logging started Tue May 14 19:02:40 2024

Set parameter LogFile to value "output/solver_log18.txt"
Gurobi Optimizer version 11.0.1 build v11.0.1rc0 (win64 - Windows 11.0 (22631.2))

CPU model: 11th Gen Intel(R) Core(TM) i7-1165G7 @ 2.80GHz, instruction set [SSE2|AVX|AVX2|AVX512]
Thread count: 4 physical cores, 8 logical processors, using up to 8 threads

Optimize a model with 1291 rows, 434 columns and 23791 nonzeros
Model fingerprint: 0xdde2dc9e
Variable types: 88 continuous, 346 integer (346 binary)
Coefficient statistics:
  Matrix range     [4e-01, 1e+05]
  Objective range  [1e+00, 1e+02]
  Bounds range     [1e+00, 1e+00]
  RHS range        [1e-02, 1e+05]

User MIP start produced solution with objective 58941.4 (0.00s)
User MIP start produced solution with objective 58941.4 (0.00s)
Loaded user MIP start with objective 58941.4

Presolve removed 183 rows and 187 columns
Presolve time: 0.03s
Presolved: 1108 rows, 247 columns, 22232 nonzeros
Variable types: 81 continuous, 166 integer (164 binary)

Root relaxation: objective 5.948282e+04, 317 iterations, 0.01 seconds (0.03 work units)

    Nodes    |    Current Node    |     Objective Bounds      |     Work
 Expl Unexpl |  Obj  Depth IntInf | Incumbent    BestBd   Gap | It/Node Time

     0     0 59482.8162    0   17 58941.3906 59482.8162  0.92%     -    0s
     0     0 59482.8162    0   17 58941.3906 59482.8162  0.92%     -    0s
     0     0 59482.8162    0   15 58941.3906 59482.8162  0.92%     -    0s
     0     2 59482.8162    0   10 58941.3906 59482.8162  0.92%     -    0s
  1660  1069 59422.8162   33   34 58941.3906 59482.8162  0.92%  85.2    5s
  3732  1604 58967.8541   37   30 58941.3906 59482.8162  0.92%  82.7   11s
  5845  2504 59482.8162   34   20 58941.3906 59482.8162  0.92%  76.7   15s
  8144  3394 infeasible   45      58941.3906 59482.8162  0.92%  72.4   20s
 11400  4908 59482.8074   32   27 58941.3906 59482.8162  0.92%  69.8   25s
H13475  4821                    59025.991501 59482.8162  0.77%  69.0   30s
 16237  5831 infeasible   39      59025.9915 59482.8162  0.77%  69.2   35s
 19462  7014 infeasible   60      59025.9915 59482.8162  0.77%  70.1   40s
 21868  7744 59482.7533   54   16 59025.9915 59482.8162  0.77%  70.6   45s
 23305  7953 59482.7912   35   24 59025.9915 59482.8162  0.77%  69.9   50s
 25492  8687 infeasible   51      59025.9915 59482.8162  0.77%  70.1   55s
 28597  9405 59482.8162   39   27 59025.9915 59482.8162  0.77%  70.5   60s

Explored 28755 nodes (2029240 simplex iterations) in 60.01 seconds (182.55 work units)
Thread count was 8 (of 8 available processors)

Solution count 2: 59026 58941.4 

Time limit reached
Best objective 5.902599150112e+04, best bound 5.948281619929e+04, gap 0.7739%
